(set-logic ALL)
(set-option :produce-models true)
(declare-sort BoundSet 0)
(declare-sort UnboundSet 0)
(declare-fun IsBald (BoundSet) Bool)
(declare-fun ( (Bool) Bool)
(declare-fun IsInAllWhite (BoundSet) Bool)
(declare-fun IsStanding (BoundSet) Bool)
(assert (not (=> (exists ((b BoundSet)) (exists ((c BoundSet)) (and (exists ((a BoundSet)) (( (and (IsBald a) (IsBald b)))) (and (IsInAllWhite c) (or (IsBald a) (IsBald b)))))) (exists ((d BoundSet)) (IsStanding d)))))
(check-sat)
(get-model)